Traveling Salesman Problem/TSP_generados/Aleatorio1620391168_14.tsp
NAME: Aleatorio1620391168_14.tsp
COMMENT: Randomly generated scenario
TYPE: TSP
DIMENSION: 14
EDGE_WEIGHT_TYPE: ATT
NODE_COORD_SECTION
1 47.17 3.72
2 42.34 37.21
3 39.89 43.8
4 31.89 7.57
5 31.75 34.0
6 15.1 30.85
7 7.93 31.61
8 7.82 31.6
9 45.3 7.4
10 21.87 7.76
11 19.12 13.81
12 10.2 15.67
13 9.13 13.69
14 30.32 18.45
