Traveling Salesman Problem/TSP_generados/Aleatorio1620391168_14.opt.tour
NAME: Aleatorio1620391168_14.opt.tour
COMMENT: Optimal solution for Aleatorio1620391168_14 (149.8324411039706)
TYPE: TOUR
DIMENSION: 14
TOUR_SECTION
1 9 14 2 3 5 6 7 8 12 13 11 10 4
-1
EOF
